Tried aggregator 1 time.
LP Presolve eliminated 4 rows and 0 columns.
Reduced LP has 9 rows, 9 columns, and 24 nonzeros.
Presolve time =    0.00 sec.
Initializing dual steep norms . . .

Iteration log . . .
Iteration:     1   Dual objective     =             0.000000
Solution status 1, solution method 2
Objective value 50.
Maximum bound violation =                 0

Elapsed time : 0.000 
